c Random generated cnf formula, satisfiable: false
p cnf 10 50
3 7 8 0
5 6 2 0
-5 9 4 0
-4 -6 5 0
-4 3 -9 0
-9 5 10 0
3 5 9 0
4 6 8 0
-2 10 7 0
-9 -6 4 0
4 -8 5 0
-9 -7 -6 0
-5 -8 10 0
-7 -8 -4 0
-2 -8 4 0
-1 -6 5 0
-5 6 -3 0
-5 8 -7 0
4 -5 -9 0
-8 4 6 0
-1 2 10 0
-3 -4 -6 0
-4 9 6 0
-2 3 9 0
-3 5 -6 0
3 -5 9 0
8 -7 4 0
-10 -7 -6 0
4 -1 8 0
-1 4 -9 0
-10 7 5 0
-3 2 -7 0
9 -1 -2 0
10 9 8 0
6 7 5 0
-3 1 4 0
-1 3 7 0
-6 2 -5 0
5 -2 -6 0
-1 -8 -9 0
2 7 -10 0
-4 2 6 0
-2 -4 -10 0
8 9 4 0
6 -3 -9 0
-9 8 2 0
7 -8 2 0
3 5 -10 0
-10 -9 4 0
-7 -9 10 0
